50
    18    94   100    58    63    39    40    47    19    54    19    97    20    30    40    30    64    48    22    12    17    80     2    46    10    89    30    79    37    28    72    96    63    41    10    24    13    62    43    30    80    16    84    23    25    20    61    50    70    79
     8    10     7    10     1     4     7     2     7     9     7     3    10     8     3     8     3     6     3     4     8     1    10     1     7     1     4    10     3    10     6     7     6     8     6     5    10     5     5     5     4     7     1     7     9     5     5     2     5    10
     0   212     0   688     0   182  1182  1066     0  1141     0   814  1143   201   289   658   234   598   150    90   221   414     0   284   725   525  1317   609   296   667   768     0     0    53   408  1206   493   754   826    52  1176  1004   946  1110  1148   406   823    35   424   564
